\ENCODING=ISO-8859-1
\Problem name: IloCplex

Minimize
 obj: 30 p_1 + 3000 y_1 + 3 I_0_1 + 3 I_1_1 + 14 X_0_1_1 + 14 X_1_0_1 + 30 p_2
      + 3000 y_2 + 3 I_0_2 + 3 I_1_2 + 14 X_0_1_2 + 14 X_1_0_2 + 30 p_3
      + 3000 y_3 + 3 I_0_3 + 3 I_1_3 + 14 X_0_1_3 + 14 X_1_0_3
Subject To
 C2_t1:         I_0_1 + p_2 - I_0_2 - Q_1_2  = 0
 C2_t2:         I_0_2 + p_3 - I_0_3 - Q_1_3  = 0
 C3_i1;t1:      I_1_1 - I_1_2 + Q_1_2  = 20
 C3_i1;t2:      I_1_2 - I_1_3 + Q_1_3  = 30
 C4_t0:         p_1 - 30 y_1 <= 0
 C4_t1:         p_2 - 40 y_2 <= 0
 C4_t2:         p_3 - 30 y_3 <= 0
 C5_t0:         I_0_1 <= 10000000000
 C5_t1:         I_0_2 <= 10000000000
 C5_t2:         I_0_3 <= 10000000000
 C6_i1;t1:      I_1_1 + Q_1_2 <= 2000
 C6_i1;t2:      I_1_2 + Q_1_3 <= 2000
 C7_i1;t0:      - 60 Z_1_1 + Q_1_1 <= 0
 C7_i1;t1:      Q_1_2 - 50 Z_1_2 <= 0
 C7_i1;t2:      Q_1_3 - 30 Z_1_3 <= 0
 C8_i1;t0:      X_0_1_1 - Z_1_1 + X_1_1_1  = 0
 C8_i1;t1:      X_0_1_2 - Z_1_2 + X_1_1_2  = 0
 C8_i1;t2:      X_0_1_3 - Z_1_3 + X_1_1_3  = 0
 C9_i1;t0:      X_0_1_1 + X_1_0_1 - 2 Z_1_1 + 2 X_1_1_1  = 0
 C9_i1;t1:      X_0_1_2 + X_1_0_2 - 2 Z_1_2 + 2 X_1_1_2  = 0
 C9_i1;t2:      X_0_1_3 + X_1_0_3 - 2 Z_1_3 + 2 X_1_1_3  = 0
 C10_t0:        Z_0_1 <= 5
 C10_t1:        Z_0_2 <= 5
 C10_t2:        Z_0_3 <= 5
 C11_x(0;1);t0: W_0_1 - W_1_1 - Q_0_1 >= 0
 C11_x(0;1);t1: W_0_2 - W_1_2 - Q_0_2 >= 0
 C11_x(0;1);t2: W_0_3 - W_1_3 - Q_0_3 >= 0
 C11_x(1;0);t0: - 60 X_1_0_1 - Q_1_1 - W_0_1 + W_1_1 >= -60
 C11_x(1;0);t1: - 50 X_1_0_2 - Q_1_2 - W_0_2 + W_1_2 >= -50
 C11_x(1;0);t2: - 30 X_1_0_3 - Q_1_3 - W_0_3 + W_1_3 >= -30
 C12_i1;t0:     - 200 Z_1_1 + W_1_1 <= 0
 C12_i1;t1:     - 200 Z_1_2 + W_1_2 <= 0
 C12_i1;t2:     - 200 Z_1_3 + W_1_3 <= 0
Bounds
 0 <= y_1 <= 1
      I_0_1 = 0
      I_1_1 = 0
 0 <= X_0_1_1 <= 1
 0 <= X_1_0_1 <= 1
 0 <= y_2 <= 1
 0 <= I_0_2 <= 10000000000
 0 <= I_1_2 <= 2000
 0 <= X_0_1_2 <= 1
 0 <= X_1_0_2 <= 1
 0 <= y_3 <= 1
 0 <= I_0_3 <= 10000000000
 0 <= I_1_3 <= 2000
 0 <= X_0_1_3 <= 1
 0 <= X_1_0_3 <= 1
 0 <= Q_1_2 <= 200
 0 <= Q_1_3 <= 200
 0 <= Z_1_1 <= 1
 0 <= Q_1_1 <= 200
 0 <= Z_1_2 <= 1
 0 <= Z_1_3 <= 1
 0 <= X_1_1_1 <= 1
 0 <= X_1_1_2 <= 1
 0 <= X_1_1_3 <= 1
 0 <= Z_0_1 <= 5
 0 <= Z_0_2 <= 5
 0 <= Z_0_3 <= 5
 0 <= W_0_1 <= 200
 0 <= W_1_1 <= 200
 0 <= Q_0_1 <= 200
 0 <= W_0_2 <= 200
 0 <= W_1_2 <= 200
 0 <= Q_0_2 <= 200
 0 <= W_0_3 <= 200
 0 <= W_1_3 <= 200
 0 <= Q_0_3 <= 200
Binaries
 y_1  X_0_1_1  X_1_0_1  y_2  X_0_1_2  X_1_0_2  y_3  X_0_1_3  X_1_0_3  Z_1_1 
 Z_1_2  Z_1_3  X_1_1_1  X_1_1_2  X_1_1_3 
End
